13	19	11	16	15	1	19	7	15	12
1	20	16	3	17	4	9	12	5	1
7	13	6	3	8	20	2	10	14	20
5	15	17	17	15	20	11	12	2	16
1	8	14	10	8	8	17	3	9	1
17	7	7	17	17	3	15	10	16	3
9	12	18	4	10	14	2	20	4	10
6	10	7	2	15	19	11	7	2	19
5	16	5	19	13	7	7	6	8	2
